\Generated by Cardinal Operations

Maximize
   1520.65 x_('B','C')12:25_f + 596.4400000000001 x_('B','C')12:25_l 
   + 1480.24 x_('B','A')14:25_f + 470.65 x_('B','A')14:25_l 
   + 1653.2 x_('A','C')0:00_f + 473.63 x_('A','C')0:00_l 
   + 1479.64 x_('B','A')12:25_f + 470.28 x_('B','A')12:25_l 
   + 1669.65 x_('A','C')15:45_f + 506.95 x_('A','C')15:45_l 
   + 1489.26 x_('B','C')9:05_f + 443.62 x_('B','C')9:05_l 
Subject To
 capacity_constraint_('B','C')12:25: 1.2 x_('B','C')12:25_f 
   + x_('B','C')12:25_l <= 187
 balance_constraint_('B','C')12:25: 3.7 x_('B','C')12:25_0 
   + 0.9 x_('B','C')12:25_f + 0.9 x_('B','C')12:25_l <= 39.79
 scale_constraint_('B','C')12:25_f: 3.079 x_('B','C')12:25_0 
   - 2 x_('B','C')12:25_f >= 0
 scale_constraint_('B','C')12:25_l: 1.652 x_('B','C')12:25_0 
   - 2 x_('B','C')12:25_l >= 0
 capacity_constraint_('B','A')14:25: 1.2 x_('B','A')14:25_f 
   + x_('B','A')14:25_l <= 187
 balance_constraint_('B','A')14:25: 3.7 x_('B','A')14:25_0 
   + 0.9 x_('B','A')14:25_f + 0.9 x_('B','A')14:25_l <= 161.93
 scale_constraint_('B','A')14:25_f: 3.079 x_('B','A')14:25_0 
   - 2 x_('B','A')14:25_f >= 0
 scale_constraint_('B','A')14:25_l: 1.652 x_('B','A')14:25_0 
   - 2 x_('B','A')14:25_l >= 0
 capacity_constraint_('A','C')0:00: 1.2 x_('A','C')0:00_f 
   + x_('A','C')0:00_l <= 187
 balance_constraint_('A','C')0:00: 4.92 x_('A','C')0:00_0 
   + 0.72 x_('A','C')0:00_f + 0.72 x_('A','C')0:00_l <= 156.57
 scale_constraint_('A','C')0:00_f: 2.671 x_('A','C')0:00_0 
   - 0.9 x_('A','C')0:00_f >= 0
 scale_constraint_('A','C')0:00_l: 1.303 x_('A','C')0:00_0 
   - 0.9 x_('A','C')0:00_l >= 0
 capacity_constraint_('B','A')12:25: 1.2 x_('B','A')12:25_f 
   + x_('B','A')12:25_l <= 187
 balance_constraint_('B','A')12:25: 3.7 x_('B','A')12:25_0 
   + 0.9 x_('B','A')12:25_f + 0.9 x_('B','A')12:25_l <= 127.15
 scale_constraint_('B','A')12:25_f: 3.079 x_('B','A')12:25_0 
   - 2 x_('B','A')12:25_f >= 0
 scale_constraint_('B','A')12:25_l: 1.652 x_('B','A')12:25_0 
   - 2 x_('B','A')12:25_l >= 0
 capacity_constraint_('A','C')15:45: 1.2 x_('A','C')15:45_f 
   + x_('A','C')15:45_l <= 187
 balance_constraint_('A','C')15:45: 4.92 x_('A','C')15:45_0 
   + 0.72 x_('A','C')15:45_f + 0.72 x_('A','C')15:45_l <= 154.21
 scale_constraint_('A','C')15:45_f: 2.803 x_('A','C')15:45_0 
   - 0.9 x_('A','C')15:45_f >= 0
 scale_constraint_('A','C')15:45_l: 1.367 x_('A','C')15:45_0 
   - 0.9 x_('A','C')15:45_l >= 0
 capacity_constraint_('B','C')9:05: 1.2 x_('B','C')9:05_f 
   + x_('B','C')9:05_l <= 187
 balance_constraint_('B','C')9:05: 3.7 x_('B','C')9:05_0 
   + 0.9 x_('B','C')9:05_f + 0.9 x_('B','C')9:05_l <= 20.73
 scale_constraint_('B','C')9:05_f: 1.864 x_('B','C')9:05_0 
   - 2 x_('B','C')9:05_f >= 0
 scale_constraint_('B','C')9:05_l: x_('B','C')9:05_0 - 2 x_('B','C')9:05_l 
   >= 0
END

